; PUSH 0x00 PUSH 0x06 DUP2 LT ISZERO ISZERO => PUSH 0x00 PUSH 0x01
(set-option :produce-proofs true)
; 
(set-info :status unknown)
(declare-fun storage_t (Int (_ BitVec 256)) (_ BitVec 256))
(declare-fun storage_s (Int (_ BitVec 256)) (_ BitVec 256))
(declare-fun exc_halt_t (Int) Bool)
(declare-fun exc_halt_s (Int) Bool)
(declare-fun stack_t (Int (_ BitVec 6)) (_ BitVec 256))
(declare-fun stack_s (Int (_ BitVec 6)) (_ BitVec 256))
(declare-fun sc_t (Int) (_ BitVec 6))
(declare-fun sc_s (Int) (_ BitVec 6))
(declare-fun used_gas_t (Int) Int)
(declare-fun used_gas_s (Int) Int)
(assert
 (let (($x8811 (forall ((w (_ BitVec 256)) )(let ((?x6381 (storage_t 2 w)))
 (let ((?x8888 (storage_s 6 w)))
 (= ?x8888 ?x6381))))
 ))
 (let (($x6842 (exc_halt_t 2)))
 (let (($x7121 (exc_halt_s 6)))
 (let (($x5559 (= $x7121 $x6842)))
 (let (($x7508 (forall ((n (_ BitVec 6)) )(let ((?x6410 (stack_t 2 n)))
 (let ((?x7906 (stack_s 6 n)))
 (let (($x8355 (= ?x7906 ?x6410)))
 (let ((?x9666 (sc_t 2)))
 (let (($x6374 (bvsle ?x9666 n)))
 (or $x6374 $x8355)))))))
 ))
 (let ((?x9666 (sc_t 2)))
 (let ((?x9114 (sc_s 6)))
 (let (($x2303 (= ?x9114 ?x9666)))
 (let ((?x4179 (used_gas_t 0)))
 (let ((?x3614 (used_gas_s 0)))
 (let (($x9177 (= ?x3614 ?x4179)))
 (let (($x5180 (forall ((w (_ BitVec 256)) )(let ((?x9200 (storage_t 0 w)))
 (let ((?x1171 (storage_s 0 w)))
 (= ?x1171 ?x9200))))
 ))
 (let (($x56 (exc_halt_t 0)))
 (let (($x57 (exc_halt_s 0)))
 (let (($x58 (= $x57 $x56)))
 (let (($x731 (forall ((n (_ BitVec 6)) )(let ((?x1653 (stack_t 0 n)))
 (let ((?x11670 (stack_s 0 n)))
 (let (($x6625 (= ?x11670 ?x1653)))
 (let ((?x63 (sc_t 0)))
 (let (($x3918 (bvsle ?x63 n)))
 (or $x3918 $x6625)))))))
 ))
 (let ((?x63 (sc_t 0)))
 (let ((?x72 (sc_s 0)))
 (let (($x73 (= ?x72 ?x63)))
 (let (($x8403 (not (= ((_ extract 6 6) (bvadd (_ bv1 7) (concat (_ bv0 1) (sc_t 1)))) (_ bv0 1)))))
 (let (($x11030 (exc_halt_t 1)))
 (let (($x6419 (= $x6842 (or $x11030 $x8403))))
 (let (($x2133 (forall ((w (_ BitVec 256)) )(let ((?x4965 (storage_t 1 w)))
 (let ((?x6381 (storage_t 2 w)))
 (= ?x6381 ?x4965))))
 ))
 (let (($x3492 (forall ((n (_ BitVec 6)) )(let ((?x4135 (sc_t 1)))
 (let (($x3402 (bvsle ?x4135 n)))
 (or (= (stack_t 2 n) (stack_t 1 n)) $x3402))))
 ))
 (let (($x9818 (= ?x9666 (bvadd (_ bv1 6) (sc_t 1)))))
 (let (($x373 (= (used_gas_t 2) (+ 3 (used_gas_t 1)))))
 (let (($x8407 (= $x11030 (or $x56 (not (= ((_ extract 6 6) (bvadd (_ bv1 7) (concat (_ bv0 1) ?x63))) (_ bv0 1)))))))
 (let (($x985 (forall ((w (_ BitVec 256)) )(let ((?x9200 (storage_t 0 w)))
 (let ((?x4965 (storage_t 1 w)))
 (= ?x4965 ?x9200))))
 ))
 (let (($x9905 (forall ((n (_ BitVec 6)) )(let ((?x63 (sc_t 0)))
 (let (($x3918 (bvsle ?x63 n)))
 (or $x3918 (= (stack_t 1 n) (stack_t 0 n))))))
 ))
 (let ((?x4135 (sc_t 1)))
 (let (($x4431 (= ?x4135 (bvadd (_ bv1 6) ?x63))))
 (let ((?x1154 (used_gas_t 1)))
 (let (($x718 (= ?x1154 (+ 3 ?x4179))))
 (let (($x10733 (= $x7121 (or (exc_halt_s 5) (not (bvsle (_ bv0 6) (bvadd (_ bv63 6) (sc_s 5))))))))
 (let (($x2522 (forall ((w (_ BitVec 256)) )(let ((?x7411 (storage_s 5 w)))
 (let ((?x8888 (storage_s 6 w)))
 (= ?x8888 ?x7411))))
 ))
 (let (($x2177 (forall ((n (_ BitVec 6)) )(or (= (stack_s 6 n) (stack_s 5 n)) (bvsle (bvadd (_ bv63 6) (sc_s 5)) n)))
 ))
 (let ((?x4319 (sc_s 5)))
 (let (($x11055 (= ?x9114 ?x4319)))
 (let (($x3911 (= (stack_s 6 (bvadd (_ bv63 6) ?x9114)) (ite (= (stack_s 5 (bvadd (_ bv63 6) ?x4319)) (_ bv0 256)) (_ bv1 256) (_ bv0 256)))))
 (let (($x1862 (exc_halt_s 5)))
 (let (($x2350 (= $x1862 (or (exc_halt_s 4) (not (bvsle (_ bv0 6) (bvadd (_ bv63 6) (sc_s 4))))))))
 (let (($x3942 (forall ((w (_ BitVec 256)) )(let ((?x8747 (storage_s 4 w)))
 (let ((?x7411 (storage_s 5 w)))
 (= ?x7411 ?x8747))))
 ))
 (let (($x8786 (forall ((n (_ BitVec 6)) )(let ((?x9433 (sc_s 4)))
 (let ((?x11263 (bvadd (_ bv63 6) ?x9433)))
 (let (($x1946 (bvsle ?x11263 n)))
 (or $x1946 (= (stack_s 5 n) (stack_s 4 n)))))))
 ))
 (let ((?x9433 (sc_s 4)))
 (let (($x9426 (= ?x4319 ?x9433)))
 (let ((?x4243 (bvadd (_ bv63 6) ?x4319)))
 (let ((?x2185 (stack_s 5 ?x4243)))
 (let (($x9175 (exc_halt_s 4)))
 (let (($x7924 (= $x9175 (or (exc_halt_s 3) (not (bvsle (_ bv0 6) (bvadd (_ bv62 6) (sc_s 3))))))))
 (let (($x4079 (forall ((w (_ BitVec 256)) )(let ((?x10197 (storage_s 3 w)))
 (let ((?x8747 (storage_s 4 w)))
 (= ?x8747 ?x10197))))
 ))
 (let (($x3634 (forall ((n (_ BitVec 6)) )(let ((?x3851 (sc_s 3)))
 (let ((?x6235 (bvadd (_ bv62 6) ?x3851)))
 (let (($x11846 (bvsle ?x6235 n)))
 (let ((?x9715 (stack_s 3 n)))
 (let ((?x685 (stack_s 4 n)))
 (let (($x5540 (= ?x685 ?x9715)))
 (or $x5540 $x11846))))))))
 ))
 (let ((?x3851 (sc_s 3)))
 (let ((?x9078 (bvadd (_ bv63 6) ?x3851)))
 (let (($x2936 (= ?x9433 ?x9078)))
 (let ((?x5479 (used_gas_s 4)))
 (let (($x6543 (= ?x5479 (+ 3 (used_gas_s 3)))))
 (let ((?x10223 (ite (bvule (stack_s 3 (bvadd (_ bv62 6) ?x3851)) (stack_s 3 ?x9078)) (_ bv0 256) (_ bv1 256))))
 (let ((?x11263 (bvadd (_ bv63 6) ?x9433)))
 (let ((?x10068 (stack_s 4 ?x11263)))
 (let (($x11461 (not (bvsle (_ bv0 6) (bvadd (_ bv62 6) (sc_s 2))))))
 (let (($x10052 (exc_halt_s 2)))
 (let (($x5066 (not (= ((_ extract 6 6) (bvadd (_ bv1 7) (concat (_ bv0 1) (sc_s 2)))) (_ bv0 1)))))
 (let (($x8103 (exc_halt_s 3)))
 (let (($x7352 (= $x8103 (or $x5066 $x10052 $x11461))))
 (let (($x5838 (forall ((w (_ BitVec 256)) )(let ((?x1307 (storage_s 2 w)))
 (let ((?x10197 (storage_s 3 w)))
 (= ?x10197 ?x1307))))
 ))
 (let (($x5498 (forall ((n (_ BitVec 6)) )(let ((?x2272 (sc_s 2)))
 (let ((?x5352 (bvadd (_ bv62 6) ?x2272)))
 (let (($x3489 (bvsle ?x5352 n)))
 (or $x3489 (= (stack_s 3 n) (stack_s 2 n)))))))
 ))
 (let (($x260 (= ?x3851 (bvadd (_ bv1 6) (sc_s 2)))))
 (let ((?x1169 (used_gas_s 3)))
 (let (($x11087 (= ?x1169 (+ 3 (used_gas_s 2)))))
 (let ((?x2272 (sc_s 2)))
 (let ((?x3887 (bvadd (_ bv63 6) ?x2272)))
 (let ((?x104 (stack_s 2 ?x3887)))
 (let ((?x5352 (bvadd (_ bv62 6) ?x2272)))
 (let ((?x1830 (stack_s 2 ?x5352)))
 (let (($x3883 (not (= ((_ extract 6 6) (bvadd (_ bv1 7) (concat (_ bv0 1) (sc_s 1)))) (_ bv0 1)))))
 (let (($x8780 (exc_halt_s 1)))
 (let (($x2169 (= $x10052 (or $x8780 $x3883))))
 (let (($x11979 (forall ((w (_ BitVec 256)) )(let ((?x786 (storage_s 1 w)))
 (let ((?x1307 (storage_s 2 w)))
 (= ?x1307 ?x786))))
 ))
 (let (($x6840 (forall ((n (_ BitVec 6)) )(let ((?x154 (sc_s 1)))
 (let (($x11176 (bvsle ?x154 n)))
 (or (= (stack_s 2 n) (stack_s 1 n)) $x11176))))
 ))
 (let (($x4571 (= ?x2272 (bvadd (_ bv1 6) (sc_s 1)))))
 (let ((?x312 (used_gas_s 2)))
 (let (($x6650 (= ?x312 (+ 3 (used_gas_s 1)))))
 (let (($x11279 (= $x8780 (or $x57 (not (= ((_ extract 6 6) (bvadd (_ bv1 7) (concat (_ bv0 1) ?x72))) (_ bv0 1)))))))
 (let (($x6555 (forall ((w (_ BitVec 256)) )(let ((?x1171 (storage_s 0 w)))
 (let ((?x786 (storage_s 1 w)))
 (= ?x786 ?x1171))))
 ))
 (let (($x3308 (forall ((n (_ BitVec 6)) )(let ((?x72 (sc_s 0)))
 (let (($x5715 (bvsle ?x72 n)))
 (or $x5715 (= (stack_s 1 n) (stack_s 0 n))))))
 ))
 (let ((?x154 (sc_s 1)))
 (let (($x11116 (= ?x154 (bvadd (_ bv1 6) ?x72))))
 (let ((?x7418 (used_gas_s 1)))
 (let (($x10190 (= ?x7418 (+ 3 ?x3614))))
 (let (($x9091 (forall ((w (_ BitVec 256)) )(let ((?x1171 (storage_s 0 w)))
 (= ?x1171 (_ bv0 256))))
 ))
 (let (($x7078 (= ?x3614 0)))
 (let (($x2113 (not $x57)))
 (let (($x4825 (= ?x72 (_ bv0 6))))
 (and $x4825 $x2113 $x7078 $x9091 (= (stack_s 1 ?x72) (_ bv0 256)) $x10190 $x11116 $x3308 $x6555 $x11279 (= (stack_s 2 ?x154) (_ bv6 256)) $x6650 $x4571 $x6840 $x11979 $x2169 (= (stack_s 3 ?x9078) ?x1830) (= (stack_s 3 ?x5352) ?x1830) (= (stack_s 3 ?x3887) ?x104) $x11087 $x260 $x5498 $x5838 $x7352 (= ?x10068 ?x10223) $x6543 $x2936 $x3634 $x4079 $x7924 (= ?x2185 (ite (= ?x10068 (_ bv0 256)) (_ bv1 256) (_ bv0 256))) (= (used_gas_s 5) (+ 3 ?x5479)) $x9426 $x8786 $x3942 $x2350 $x3911 (= (used_gas_s 6) (+ 3 (used_gas_s 5))) $x11055 $x2177 $x2522 $x10733 (= (stack_t 1 ?x63) (_ bv0 256)) $x718 $x4431 $x9905 $x985 $x8407 (= (stack_t 2 ?x4135) (_ bv1 256)) $x373 $x9818 $x3492 $x2133 $x6419 $x73 $x731 $x58 $x5180 $x9177 (not (and $x2303 $x7508 $x5559 $x8811)))))))))))))))))))))))))))))))))))))))))))))))))))))))))))))))))))))))))))))))))))))))))))))))))
(check-sat)
(get-proof)
